benchmarks/bfuzz0/204982168119827260201186523860137316789.smt2
(set-logic QF_FP)
(declare-const x0 (_ FloatingPoint 8 24))
(declare-const x1 (_ FloatingPoint 8 24))
(declare-const x2 (_ FloatingPoint 8 24))
(declare-const x3 (_ FloatingPoint 8 24))
(declare-const x4 (_ FloatingPoint 8 24))
(declare-const x5 (_ FloatingPoint 8 24))
(declare-const x6 (_ FloatingPoint 8 24))
(declare-const x7 (_ FloatingPoint 8 24))
(declare-const x8 (_ FloatingPoint 8 24))
(declare-const x9 (_ FloatingPoint 8 24))
(declare-const x10 (_ FloatingPoint 8 24))
(assert (fp.lt (fp.add RNE (fp.div RNE x0 x5) (fp.sub RNE x6 x6)) (fp.sub RNE (fp.add RNE x0 x1) (fp.add RNE x10 x8))))
(assert (fp.eq (fp.div RNE (fp.neg x4) (fp.add RNE x9 x2)) (fp.neg (fp.add RNE x9 x0))))
(assert (fp.gt (fp.sub RNE (fp.sub RNE x6 x9) (fp.mul RNE x5 x9)) (fp.neg (fp.div RNE x8 x6))))
(assert (fp.lt (fp.neg (fp.sub RNE x3 x10)) (fp.div RNE (fp.div RNE x1 x10) (fp.sub RNE x0 x0))))
(assert (fp.leq (fp.div RNE (fp.add RNE x7 x3) (fp.sub RNE x3 x1)) (fp.add RNE (fp.add RNE x7 x1) (fp.add RNE x5 x10))))
(assert (fp.gt (fp.div RNE (fp.mul RNE x7 x6) (fp.neg x9)) (fp.div RNE (fp.div RNE x6 x7) (fp.neg x8))))
(assert (fp.lt (fp.mul RNE (fp.sub RNE x0 x0) (fp.div RNE x2 x0)) (fp.div RNE (fp.neg x2) (fp.neg x2))))
(assert (fp.geq (fp.div RNE (fp.mul RNE x8 x8) (fp.sub RNE x0 x2)) (fp.mul RNE (fp.div RNE x7 x10) (fp.mul RNE x1 x3))))
(assert (fp.lt (fp.sub RNE (fp.sub RNE x7 x6) (fp.sub RNE x9 x0)) (fp.neg (fp.div RNE x5 x3))))
(check-sat)
