db/data/204982168119827260201186523860137316789.z3.out
sat
-------------------
950.474484083
